c uprop, v00.0, 
c reading from data/prog364.c.cnf
c done reading: 0
p cnf 192 930
-99 -117 0
99 117 0
-94 117 0
94 -117 0
99 -111 0
-109 -111 0
-99 109 111 0
-99 -104 109 0
99 -104 -109 0
99 104 109 0
-99 104 -109 0
-100 111 0
-97 -100 0
97 100 -111 0
-96 97 -111 0
-96 -97 111 0
96 97 111 0
96 -97 -111 0
-95 100 0
-92 -95 0
92 95 -100 0
-90 92 -100 0
-90 -92 100 0
90 92 100 0
90 -92 -100 0
95 -115 0
-113 -115 0
-95 113 115 0
-95 113 -119 0
95 -113 -119 0
95 113 119 0
-95 -113 119 0
115 -120 0
-106 -120 0
106 -115 120 0
106 -115 -121 0
-106 115 -121 0
106 115 121 0
-106 -115 121 0
120 -122 0
-102 -122 0
102 -120 122 0
102 -120 -123 0
-102 120 -123 0
102 120 123 0
-102 -120 123 0
117 -124 0
-117 124 0
-109 -117 125 0
109 117 -125 0
109 -125 0
117 -125 0
109 -125 -126 0
117 -125 -126 0
-125 -126 0
-109 125 126 0
-117 125 126 0
109 117 -126 0
-97 -109 127 0
-97 -125 127 0
-109 -125 127 0
97 109 -127 0
97 125 -127 0
109 125 -127 0
97 -127 -128 0
109 -127 -128 0
125 -127 -128 0
-97 127 128 0
-109 127 128 0
-125 127 128 0
-97 -109 -125 128 0
97 109 125 -128 0
-92 -97 129 0
-92 -127 129 0
-97 -127 129 0
92 97 -129 0
92 127 -129 0
97 127 -129 0
92 -129 -130 0
97 -129 -130 0
127 -129 -130 0
-92 129 130 0
-97 129 130 0
-127 129 130 0
-92 -97 -127 130 0
92 97 127 -130 0
-92 -113 131 0
-113 -129 131 0
-92 -129 131 0
92 113 -131 0
113 129 -131 0
92 129 -131 0
-89 113 -131 0
-89 92 -131 0
-89 129 -131 0
89 -113 131 0
89 -92 131 0
89 -129 131 0
89 -92 -113 -129 0
-89 92 113 129 0
88 -106 -113 0
88 -106 -131 0
88 -113 -131 0
-88 106 113 0
-88 106 131 0
-88 113 131 0
-87 -88 106 0
-87 -88 113 0
-87 -88 131 0
87 88 -106 0
87 88 -113 0
87 88 -131 0
87 -106 -113 -131 0
-87 106 113 131 0
86 -102 -106 0
86 -88 -102 0
86 -88 -106 0
-86 102 106 0
-86 88 102 0
-86 88 106 0
-85 -86 102 0
-85 -86 106 0
-85 -86 88 0
85 86 -102 0
85 86 -106 0
85 86 -88 0
85 -88 -102 -106 0
-85 88 102 106 0
102 -116 0
86 -116 0
-86 -102 116 0
-86 -102 -108 0
86 102 -108 0
86 -102 108 0
-86 102 108 0
-91 126 0
91 -126 0
112 -117 -128 0
-112 117 128 0
-112 128 0
-112 117 0
-105 -112 128 0
-105 -112 117 0
-105 -112 0
105 112 -128 0
105 112 -117 0
-105 117 128 0
101 -109 -130 0
101 -112 -130 0
101 -109 -112 0
-101 109 130 0
-101 112 130 0
-101 109 112 0
-84 -101 130 0
-84 -101 109 0
-84 -101 112 0
84 101 -130 0
84 101 -109 0
84 101 -112 0
84 -109 -112 -130 0
-84 109 112 130 0
83 -89 -97 0
83 -89 -101 0
83 -97 -101 0
-83 89 97 0
-83 89 101 0
-83 97 101 0
-82 -83 89 0
-82 -83 97 0
-82 -83 101 0
82 83 -89 0
82 83 -97 0
82 83 -101 0
82 -89 -97 -101 0
-82 89 97 101 0
81 -87 -92 0
81 -83 -87 0
81 -83 -92 0
-81 87 92 0
-81 83 87 0
-81 83 92 0
-80 -81 87 0
-80 -81 92 0
-80 -81 83 0
80 81 -87 0
80 81 -92 0
80 81 -83 0
80 -83 -87 -92 0
-80 83 87 92 0
79 -85 -113 0
79 -81 -85 0
79 -81 -113 0
-79 85 113 0
-79 81 85 0
-79 81 113 0
-78 -79 85 0
-78 -79 113 0
-78 -79 81 0
78 79 -85 0
78 79 -113 0
78 79 -81 0
78 -81 -85 -113 0
-78 81 85 113 0
77 -106 -108 0
77 -79 -108 0
77 -79 -106 0
-77 106 108 0
-77 79 108 0
-77 79 106 0
-76 -77 108 0
-76 -77 106 0
-76 -77 79 0
76 77 -108 0
76 77 -106 0
76 77 -79 0
76 -79 -106 -108 0
-76 79 106 108 0
75 -102 -116 0
75 -77 -116 0
75 -77 -102 0
-75 102 116 0
-75 77 116 0
-75 77 102 0
-74 -75 116 0
-74 -75 102 0
-74 -75 77 0
74 75 -116 0
74 75 -102 0
74 75 -77 0
74 -77 -102 -116 0
-74 77 102 116 0
-73 105 0
73 -105 0
72 -84 -117 0
-72 84 117 0
-72 84 0
-72 117 0
-71 -72 84 0
-71 -72 117 0
-71 -72 0
71 72 -84 0
71 72 -117 0
-71 84 117 0
70 -82 -109 0
70 -72 -82 0
70 -72 -109 0
-70 82 109 0
-70 72 82 0
-70 72 109 0
-69 -70 82 0
-69 -70 109 0
-69 -70 72 0
69 70 -82 0
69 70 -109 0
69 70 -72 0
69 -72 -82 -109 0
-69 72 82 109 0
68 -80 -97 0
68 -70 -80 0
68 -70 -97 0
-68 80 97 0
-68 70 80 0
-68 70 97 0
-67 -68 80 0
-67 -68 97 0
-67 -68 70 0
67 68 -80 0
67 68 -97 0
67 68 -70 0
67 -70 -80 -97 0
-67 70 80 97 0
66 -78 -92 0
66 -68 -78 0
66 -68 -92 0
-66 78 92 0
-66 68 78 0
-66 68 92 0
-66 78 -132 0
-66 92 -132 0
-66 68 -132 0
66 -78 132 0
66 -92 132 0
66 -68 132 0
-68 -78 -92 132 0
68 78 92 -132 0
-76 -113 133 0
-66 -76 133 0
-66 -113 133 0
76 113 -133 0
66 76 -133 0
66 113 -133 0
76 -133 -134 0
113 -133 -134 0
66 -133 -134 0
-76 133 134 0
-113 133 134 0
-66 133 134 0
-66 -76 -113 134 0
66 76 113 -134 0
-74 -106 135 0
-74 -133 135 0
-106 -133 135 0
74 106 -135 0
74 133 -135 0
106 133 -135 0
74 -135 -136 0
106 -135 -136 0
133 -135 -136 0
-74 135 136 0
-106 135 136 0
-133 135 136 0
-74 -106 -133 136 0
74 106 133 -136 0
-75 -102 137 0
-75 -135 137 0
-102 -135 137 0
75 102 -137 0
75 135 -137 0
102 135 -137 0
75 -137 -138 0
102 -137 -138 0
135 -137 -138 0
-75 137 138 0
-102 137 138 0
-135 137 138 0
-75 -102 -135 138 0
75 102 135 -138 0
71 -139 0
-71 139 0
-69 -117 140 0
69 117 -140 0
69 -140 0
117 -140 0
69 -140 -141 0
117 -140 -141 0
-140 -141 0
-69 140 141 0
-117 140 141 0
69 117 -141 0
-67 -109 142 0
-67 -140 142 0
-109 -140 142 0
67 109 -142 0
67 140 -142 0
109 140 -142 0
67 -142 -143 0
109 -142 -143 0
140 -142 -143 0
-67 142 143 0
-109 142 143 0
-140 142 143 0
-67 -109 -140 143 0
67 109 140 -143 0
-97 -132 144 0
-132 -142 144 0
-97 -142 144 0
97 132 -144 0
132 142 -144 0
97 142 -144 0
132 -144 -145 0
97 -144 -145 0
142 -144 -145 0
-132 144 145 0
-97 144 145 0
-142 144 145 0
-97 -132 -142 145 0
97 132 142 -145 0
-92 -134 146 0
-134 -144 146 0
-92 -144 146 0
92 134 -146 0
134 144 -146 0
92 144 -146 0
134 -146 -147 0
92 -146 -147 0
144 -146 -147 0
-134 146 147 0
-92 146 147 0
-144 146 147 0
-92 -134 -144 147 0
92 134 144 -147 0
-113 -136 148 0
-136 -146 148 0
-113 -146 148 0
113 136 -148 0
136 146 -148 0
113 146 -148 0
136 -148 -149 0
113 -148 -149 0
146 -148 -149 0
-136 148 149 0
-113 148 149 0
-146 148 149 0
-113 -136 -146 149 0
113 136 146 -149 0
-106 -138 150 0
-138 -148 150 0
-106 -148 150 0
106 138 -150 0
138 148 -150 0
106 148 -150 0
138 -150 -151 0
106 -150 -151 0
148 -150 -151 0
-138 150 151 0
-106 150 151 0
-148 150 151 0
-106 -138 -148 151 0
106 138 148 -151 0
-102 -137 152 0
-137 -150 152 0
-102 -150 152 0
102 137 -152 0
137 150 -152 0
102 150 -152 0
137 -152 -153 0
102 -152 -153 0
150 -152 -153 0
-137 152 153 0
-102 152 153 0
-150 152 153 0
-102 -137 -150 153 0
102 137 150 -153 0
141 -154 0
-141 154 0
-117 -143 155 0
117 143 -155 0
143 -155 0
117 -155 0
143 -155 -156 0
117 -155 -156 0
-155 -156 0
-143 155 156 0
-117 155 156 0
117 143 -156 0
-109 -145 157 0
-145 -155 157 0
-109 -155 157 0
109 145 -157 0
145 155 -157 0
109 155 -157 0
145 -157 -158 0
109 -157 -158 0
155 -157 -158 0
-145 157 158 0
-109 157 158 0
-155 157 158 0
-109 -145 -155 158 0
109 145 155 -158 0
-97 -147 159 0
-147 -157 159 0
-97 -157 159 0
97 147 -159 0
147 157 -159 0
97 157 -159 0
147 -159 -160 0
97 -159 -160 0
157 -159 -160 0
-147 159 160 0
-97 159 160 0
-157 159 160 0
-97 -147 -157 160 0
97 147 157 -160 0
-92 -149 161 0
-149 -159 161 0
-92 -159 161 0
92 149 -161 0
149 159 -161 0
92 159 -161 0
149 -161 -162 0
92 -161 -162 0
159 -161 -162 0
-149 161 162 0
-92 161 162 0
-159 161 162 0
-92 -149 -159 162 0
92 149 159 -162 0
-113 -151 163 0
-151 -161 163 0
-113 -161 163 0
113 151 -163 0
151 161 -163 0
113 161 -163 0
151 -163 -164 0
113 -163 -164 0
161 -163 -164 0
-151 163 164 0
-113 163 164 0
-161 163 164 0
-113 -151 -161 164 0
113 151 161 -164 0
-106 -153 165 0
-153 -163 165 0
-106 -163 165 0
106 153 -165 0
153 163 -165 0
106 163 -165 0
153 -165 -166 0
106 -165 -166 0
163 -165 -166 0
-153 165 166 0
-106 165 166 0
-163 165 166 0
-106 -153 -163 166 0
106 153 163 -166 0
-102 -152 167 0
-152 -165 167 0
-102 -165 167 0
102 152 -167 0
152 165 -167 0
102 165 -167 0
152 -167 -168 0
102 -167 -168 0
165 -167 -168 0
-152 167 168 0
-102 167 168 0
-165 167 168 0
-102 -152 -165 168 0
102 152 165 -168 0
-124 -169 0
124 169 0
124 -170 0
-124 170 0
-118 169 0
-91 -118 0
91 118 -169 0
91 -110 -169 0
-91 -110 169 0
91 110 169 0
-91 110 -169 0
-98 118 0
-73 -98 0
73 98 -118 0
73 -93 -118 0
-73 -93 118 0
73 93 118 0
-73 93 -118 0
98 -114 0
-114 -139 0
-98 114 139 0
-98 -107 139 0
98 -107 -139 0
98 107 139 0
-98 107 -139 0
-103 114 0
-103 -154 0
103 -114 154 0
-114 154 -171 0
114 -154 -171 0
114 154 171 0
-114 -154 171 0
103 -173 0
-156 -173 0
-103 156 173 0
-103 156 -175 0
103 -156 -175 0
103 156 175 0
-103 -156 175 0
173 -176 0
-158 -176 0
158 -173 176 0
158 -173 -177 0
-158 173 -177 0
158 173 177 0
-158 -173 177 0
176 -178 0
-160 -178 0
160 -176 178 0
160 -176 -179 0
-160 176 -179 0
160 176 179 0
-160 -176 179 0
178 -180 0
-162 -180 0
162 -178 180 0
162 -178 -181 0
-162 178 -181 0
162 178 181 0
-162 -178 181 0
180 -182 0
-164 -182 0
164 -180 182 0
164 -180 -183 0
-164 180 -183 0
164 180 183 0
-164 -180 183 0
182 -184 0
-166 -184 0
166 -182 184 0
166 -182 -185 0
-166 182 -185 0
166 182 185 0
-166 -182 185 0
184 -186 0
-168 -186 0
168 -184 186 0
168 -184 -187 0
-168 184 -187 0
168 184 187 0
-168 -184 187 0
186 -188 0
-167 -188 0
167 -186 188 0
167 -186 -189 0
-167 186 -189 0
167 186 189 0
-167 -186 189 0
-172 -190 0
-174 -190 0
172 174 190 0
172 174 -191 0
-172 -174 -191 0
-172 174 191 0
172 -174 191 0
190 -192 0
-65 -192 0
65 -190 192 0
-64 65 -190 0
-64 -65 190 0
64 65 190 0
64 -65 -190 0
-63 192 0
-62 -63 0
62 63 -192 0
-61 62 -192 0
-61 -62 192 0
61 62 192 0
61 -62 -192 0
-60 63 0
-59 -60 0
59 60 -63 0
-58 59 -63 0
-58 -59 63 0
58 59 63 0
58 -59 -63 0
-57 60 0
-56 -57 0
56 57 -60 0
-55 56 -60 0
-55 -56 60 0
55 56 60 0
55 -56 -60 0
-54 57 0
-53 -54 0
53 54 -57 0
-52 53 -57 0
-52 -53 57 0
52 53 57 0
52 -53 -57 0
-51 54 0
-50 -51 0
50 51 -54 0
-49 50 -54 0
-49 -50 54 0
49 50 54 0
49 -50 -54 0
-48 65 0
-48 172 0
48 -65 -172 0
-47 -65 -172 0
-47 65 172 0
47 -65 172 0
47 65 -172 0
46 -62 -174 0
46 -48 -62 0
46 -48 -174 0
-46 62 174 0
-46 48 62 0
-46 48 174 0
-45 -46 62 0
-45 -46 174 0
-45 -46 48 0
45 46 -62 0
45 46 -174 0
45 46 -48 0
45 -48 -62 -174 0
-45 48 62 174 0
44 -59 -65 0
44 -46 -59 0
44 -46 -65 0
-44 59 65 0
-44 46 59 0
-44 46 65 0
-43 -44 59 0
-43 -44 65 0
-43 -44 46 0
43 44 -59 0
43 44 -65 0
43 44 -46 0
43 -46 -59 -65 0
-43 46 59 65 0
42 -56 -62 0
42 -44 -56 0
42 -44 -62 0
-42 56 62 0
-42 44 56 0
-42 44 62 0
-41 -42 56 0
-41 -42 62 0
-41 -42 44 0
41 42 -56 0
41 42 -62 0
41 42 -44 0
41 -44 -56 -62 0
-41 44 56 62 0
40 -53 -59 0
40 -42 -53 0
40 -42 -59 0
-40 53 59 0
-40 42 53 0
-40 42 59 0
-39 -40 53 0
-39 -40 59 0
-39 -40 42 0
39 40 -53 0
39 40 -59 0
39 40 -42 0
39 -42 -53 -59 0
-39 42 53 59 0
38 -50 -56 0
38 -40 -50 0
38 -40 -56 0
-38 50 56 0
-38 40 50 0
-38 40 56 0
-37 -38 50 0
-37 -38 56 0
-37 -38 40 0
37 38 -50 0
37 38 -56 0
37 38 -40 0
37 -40 -50 -56 0
-37 40 50 56 0
-36 53 0
-36 38 0
36 -38 -53 0
-35 -38 -53 0
-35 38 53 0
35 38 -53 0
35 -38 53 0
-34 50 0
-34 36 0
34 -36 -50 0
-33 -36 -50 0
-33 36 50 0
33 36 -50 0
33 -36 50 0
-32 -172 0
-32 -174 0
32 172 174 0
-31 172 174 0
-31 -172 -174 0
31 -172 174 0
31 172 -174 0
-30 32 0
-30 -47 0
30 -32 47 0
-29 -32 47 0
-29 32 -47 0
29 32 47 0
29 -32 -47 0
-28 30 0
-28 -45 0
28 -30 45 0
-27 -30 45 0
-27 30 -45 0
27 30 45 0
27 -30 -45 0
-26 28 0
-26 -43 0
26 -28 43 0
-25 -28 43 0
-25 28 -43 0
25 28 43 0
25 -28 -43 0
-24 26 0
-24 -41 0
24 -26 41 0
-23 -26 41 0
-23 26 -41 0
23 26 41 0
23 -26 -41 0
-22 24 0
-22 -39 0
22 -24 39 0
-21 -24 39 0
-21 24 -39 0
21 24 39 0
21 -24 -39 0
-20 22 0
-20 -37 0
20 -22 37 0
-19 -22 37 0
-19 22 -37 0
19 22 37 0
19 -22 -37 0
-18 20 0
-18 -35 0
18 -20 35 0
-17 -20 35 0
-17 20 -35 0
17 20 35 0
17 -20 -35 0
-16 18 0
-16 -33 0
16 -18 33 0
-15 -18 33 0
-15 18 -33 0
15 18 33 0
15 -18 -33 0
-14 16 0
-14 -34 0
14 -16 34 0
-13 -16 34 0
-13 16 -34 0
13 16 34 0
13 -16 -34 0
-12 124 0
-12 172 0
12 -124 -172 0
-124 -172 0
124 172 0
11 -91 -174 0
11 -12 -91 0
11 -12 -174 0
-11 91 174 0
-11 12 91 0
-11 12 174 0
-11 91 0
-11 174 0
-11 12 0
12 91 174 0
10 -47 -73 0
10 -11 -73 0
10 -11 -47 0
-10 47 73 0
-10 11 73 0
-10 11 47 0
10 -73 0
10 -47 0
10 -11 0
-11 -47 -73 0
9 -45 -139 0
9 -10 -139 0
9 -10 -45 0
-9 45 139 0
-9 10 139 0
-9 10 45 0
9 -139 0
9 -45 0
9 -10 0
-10 -45 -139 0
8 -43 -154 0
8 -9 -154 0
8 -9 -43 0
-8 43 154 0
-8 9 154 0
-8 9 43 0
8 -154 0
8 -43 0
8 -9 0
-9 -43 -154 0
7 -41 -156 0
7 -8 -156 0
7 -8 -41 0
-7 41 156 0
-7 8 156 0
-7 8 41 0
7 -156 0
7 -41 0
7 -8 0
-8 -41 -156 0
6 -39 -158 0
6 -7 -158 0
6 -7 -39 0
-6 39 158 0
-6 7 158 0
-6 7 39 0
-6 158 0
-6 39 0
-6 7 0
7 39 158 0
5 -37 -160 0
5 -6 -160 0
5 -6 -37 0
-5 37 160 0
-5 6 160 0
-5 6 37 0
5 -160 0
5 -37 0
5 -6 0
-6 -37 -160 0
4 -35 -162 0
4 -5 -162 0
4 -5 -35 0
-4 35 162 0
-4 5 162 0
-4 5 35 0
4 -162 0
4 -35 0
4 -5 0
-5 -35 -162 0
3 -33 -164 0
3 -4 -164 0
3 -4 -33 0
-3 33 164 0
-3 4 164 0
-3 4 33 0
3 -164 0
3 -33 0
3 -4 0
-4 -33 -164 0
2 -34 -166 0
2 -3 -166 0
2 -3 -34 0
-2 34 166 0
-2 3 166 0
-2 3 34 0
2 -166 0
2 -34 0
2 -3 0
-3 -34 -166 0
-1 168 0
-1 2 0
1 -2 -168 0
2 -168 0
-2 168 0
-1 -167 0
1 -167 0
-1 167 0
